p tdp 20 98
1 3
1 4
1 5
1 6
1 8
1 11
1 12
1 20
2 3
2 4
2 6
2 9
2 10
2 11
2 14
2 15
2 17
2 19
3 4
3 5
3 8
3 9
3 10
3 12
3 13
3 14
3 15
3 17
3 18
3 19
4 5
4 11
4 14
4 15
4 16
4 19
5 6
5 7
5 8
5 10
5 13
5 14
5 15
5 16
5 20
6 10
6 11
6 13
6 17
6 19
6 20
7 11
7 12
7 13
7 14
7 15
7 16
8 9
8 10
8 11
8 12
8 14
8 15
8 16
8 17
8 19
9 10
9 11
9 13
9 15
10 11
10 14
10 15
10 16
10 17
10 19
10 20
11 12
11 15
11 20
12 16
12 18
13 14
13 16
13 17
13 20
14 15
14 16
14 17
14 18
15 16
15 18
16 17
16 18
17 18
17 20
18 20
19 20
